WARNING: for repeatability, setting FPU to use double precision
============================[ Problem Statistics ]=============================
|                                                                             |
|  Number of variables:           100                                         |
|  Number of clauses:             449                                         |
|  Parse time:                   0.00 s                                       |
|  Eliminated clauses:           0.00 Mb                                      |
|  Simplification time:          0.00 s                                       |
|                                                                             |
============================[ Search Statistics ]==============================
| Conflicts |          ORIGINAL         |          LEARNT          | Progress |
|           |    Vars  Clauses Literals |    Limit  Clauses Lit/Cl |          |
===============================================================================
|       100 |      98      445     1351 |      163      100      8 |  0.010 % |
|       250 |      98      445     1351 |      179      165      6 |  0.020 % |
===============================================================================
restarts              : 3
conflicts             : 373            (213631 /sec)
decisions             : 457            (0.00 % random) (261741 /sec)
propagations          : 8433           (4829897 /sec)
conflict literals     : 2491           (19.28 % deleted)
Memory used           : 13.00 MB
CPU time              : 0.001746 s

SATISFIABLE
